benchmarks_vrp/CMT2/tsp_classic/CMT2_9.vrp
NAME: CMT2_9
TYPE: CVRP
COMMENT: 835.26 - Cluster Nr.9
DIMENSION: 6
CAPACITY: 140
EDGE_WEIGHT_TYPE: EUC_2D
NODE_COORD_TYPE: TWOD_COORDS
NODE_COORD_SECTION: 
5 47 66
6 40 66
1 40 60
3 57 72
4 40 40
2 50 70
DEPOT_SECTION: 
4
-1
DEMAND_SECTION: 
4 0
2 9
1 21
6 26
3 37
5 24
EOF
