benchmarks_vrp/CMT2/tsp_classic/CMT2_9.tour
NAME: CMT2_9 solution
TYPE: TOUR
TOUR_SECTION:
4 1 6 5 2 3 -1
-1
EOF